g9 0 1 0 20 20130207 0 4 0 240	# problem orthrege
 36 20 1 0 20	# vars, constraints, objectives, ranges, eqns
 20 1	# nonlinear constraints, objectives
 0 0	# network constraints: nonlinear, linear
 14 34 10	# nonlinear vars in constraints, objectives, both
 0 0 0 1	# linear network variables; functions; arith, flags
 0 0 0 0 0	# discrete variables: binary, integer, nonlinear (b,c,o)
 120 30	# nonzeros in Jacobian, gradients
 0 0	# max name lengths: constraints, variables
 0 0 0 0 0	# common exprs: b,c,o,c1,o1
C0	#a1
o16	#-
o2	#*
v11	#p4
o46	#cos
o3	#/
o1	# - 
v0	#z1
v10	#p3
v13	#p6
C1	#b1
o16	#-
o2	#*
v12	#p5
o46	#cos
o3	#/
o1	# - 
v0	#z1
v10	#p3
v13	#p6
C2	#a2
o16	#-
o2	#*
v11	#p4
o46	#cos
o3	#/
o1	# - 
v1	#z2
v10	#p3
v13	#p6
C3	#b2
o16	#-
o2	#*
v12	#p5
o46	#cos
o3	#/
o1	# - 
v1	#z2
v10	#p3
v13	#p6
C4	#a3
o16	#-
o2	#*
v11	#p4
o46	#cos
o3	#/
o1	# - 
v2	#z3
v10	#p3
v13	#p6
C5	#b3
o16	#-
o2	#*
v12	#p5
o46	#cos
o3	#/
o1	# - 
v2	#z3
v10	#p3
v13	#p6
C6	#a4
o16	#-
o2	#*
v11	#p4
o46	#cos
o3	#/
o1	# - 
v3	#z4
v10	#p3
v13	#p6
C7	#b4
o16	#-
o2	#*
v12	#p5
o46	#cos
o3	#/
o1	# - 
v3	#z4
v10	#p3
v13	#p6
C8	#a5
o16	#-
o2	#*
v11	#p4
o46	#cos
o3	#/
o1	# - 
v4	#z5
v10	#p3
v13	#p6
C9	#b5
o16	#-
o2	#*
v12	#p5
o46	#cos
o3	#/
o1	# - 
v4	#z5
v10	#p3
v13	#p6
C10	#a6
o16	#-
o2	#*
v11	#p4
o46	#cos
o3	#/
o1	# - 
v5	#z6
v10	#p3
v13	#p6
C11	#b6
o16	#-
o2	#*
v12	#p5
o46	#cos
o3	#/
o1	# - 
v5	#z6
v10	#p3
v13	#p6
C12	#a7
o16	#-
o2	#*
v11	#p4
o46	#cos
o3	#/
o1	# - 
v6	#z7
v10	#p3
v13	#p6
C13	#b7
o16	#-
o2	#*
v12	#p5
o46	#cos
o3	#/
o1	# - 
v6	#z7
v10	#p3
v13	#p6
C14	#a8
o16	#-
o2	#*
v11	#p4
o46	#cos
o3	#/
o1	# - 
v7	#z8
v10	#p3
v13	#p6
C15	#b8
o16	#-
o2	#*
v12	#p5
o46	#cos
o3	#/
o1	# - 
v7	#z8
v10	#p3
v13	#p6
C16	#a9
o16	#-
o2	#*
v11	#p4
o46	#cos
o3	#/
o1	# - 
v8	#z9
v10	#p3
v13	#p6
C17	#b9
o16	#-
o2	#*
v12	#p5
o46	#cos
o3	#/
o1	# - 
v8	#z9
v10	#p3
v13	#p6
C18	#a10
o16	#-
o2	#*
v11	#p4
o46	#cos
o3	#/
o1	# - 
v9	#z10
v10	#p3
v13	#p6
C19	#b10
o16	#-
o2	#*
v12	#p5
o46	#cos
o3	#/
o1	# - 
v9	#z10
v10	#p3
v13	#p6
O0 0	#obj
o54	#sumlist
30
o2	#*
o0	# + 
n-2.04
v14	#x1
o0	# + 
n-2.04
v14	#x1
o2	#*
v15	#y1
v15	#y1
o2	#*
v0	#z1
v0	#z1
o2	#*
o0	# + 
n-1.3158481289749502
v16	#x2
o0	# + 
n-1.3158481289749502
v16	#x2
o2	#*
o0	# + 
n-0.44989158873434343
v17	#y2
o0	# + 
n-0.44989158873434343
v17	#y2
o2	#*
o0	# + 
n-1.2022895305400736
v1	#z2
o0	# + 
n-1.2022895305400736
v1	#z2
o2	#*
o0	# + 
n-0.430088986450231
v18	#x3
o0	# + 
n-0.430088986450231
v18	#x3
o2	#*
o0	# + 
n-0.6229071966854107
v19	#y3
o0	# + 
n-0.6229071966854107
v19	#y3
o2	#*
o0	# + 
n-2.0576281634294458
v2	#z3
o0	# + 
n-2.0576281634294458
v2	#z3
o2	#*
o0	# + 
n-0.589238245544798
v20	#x4
o0	# + 
n-0.589238245544798
v20	#x4
o2	#*
o0	# + 
n-0.8534065167622111
v21	#y4
o0	# + 
n-0.8534065167622111
v21	#y4
o2	#*
o0	# + 
n-4.228543095272071
v3	#z4
o0	# + 
n-4.228543095272071
v3	#z4
o2	#*
o0	# + 
n-1.5523083447536554
v22	#x5
o0	# + 
n-1.5523083447536554
v22	#x5
o2	#*
o0	# + 
n-0.5307378960995334
v23	#y5
o0	# + 
n-0.5307378960995334
v23	#y5
o2	#*
o0	# + 
n-5.673372268706844
v4	#z5
o0	# + 
n-5.673372268706844
v4	#z5
o2	#*
o0	# + 
n-1.398575392006912
v24	#x6
o0	# + 
n-1.398575392006912
v24	#x6
o2	#*
o0	# + 
n-5.909737265378833e-11
v25	#y6
o0	# + 
n-5.909737265378833e-11
v25	#y6
o2	#*
o0	# + 
n-5.169122561052704
v5	#z6
o0	# + 
n-5.169122561052704
v5	#z6
o2	#*
o0	# + 
n-1.3038139373900266
v26	#x7
o0	# + 
n-1.3038139373900266
v26	#x7
o2	#*
o0	# + 
n-0.4457770700730953
v27	#y7
o0	# + 
n-0.4457770700730953
v27	#y7
o2	#*
o0	# + 
n-7.147763387322507
v6	#z7
o0	# + 
n-7.147763387322507
v6	#z7
o2	#*
o0	# + 
n-0.6302880692347895
v28	#x8
o0	# + 
n-0.6302880692347895
v28	#x8
o2	#*
o0	# + 
n-0.9128598651915992
v29	#y8
o0	# + 
n-0.9128598651915992
v29	#y8
o2	#*
o0	# + 
n-10.553966341636624
v7	#z8
o0	# + 
n-10.553966341636624
v7	#z8
o2	#*
o0	# + 
n-0.5072520157785213
v30	#x9
o0	# + 
n-0.5072520157785213
v30	#x9
o2	#*
o0	# + 
n-0.7346640841993812
v31	#y9
o0	# + 
n-0.7346640841993812
v31	#y9
o2	#*
o0	# + 
n-9.707163559929034
v8	#z9
o0	# + 
n-9.707163559929034
v8	#z9
o2	#*
o0	# + 
n-1.1210098714058698
v32	#x10
o0	# + 
n-1.1210098714058698
v32	#x10
o2	#*
o0	# + 
n-0.3832759276080059
v33	#y10
o0	# + 
n-0.3832759276080059
v33	#y10
o2	#*
o0	# + 
n-9.218393538502168
v9	#z10
o0	# + 
n-9.218393538502168
v9	#z10
x36	# initial guess
0 0
1 1.202289530540075
2 2.0576281634294435
3 4.2285430952720615
4 5.673372268706862
5 5.1691225610527205
6 7.147763387322456
7 10.55396634163662
8 9.707163559929125
9 9.218393538502124
10 1
11 1
12 0
13 0.25
14 2.04
15 0
16 1.3158481289749517
17 0.44989158873434404
18 0.43008898645023036
19 0.62290719668541
20 -0.5892382455447966
21 0.8534065167622089
22 -1.5523083447536603
23 0.5307378960995349
24 -1.3985753920069166
25 5.909729205593858e-11
26 -1.303813937390017
27 -0.44577707007309214
28 -0.6302880692347891
29 -0.9128598651915989
30 0.5072520157785263
31 -0.7346640841993881
32 1.1210098714058645
33 -0.3832759276080039
34 1
35 0
r	#20 ranges (rhs's)
4 0
4 0
4 0
4 0
4 0
4 0
4 0
4 0
4 0
4 0
4 0
4 0
4 0
4 0
4 0
4 0
4 0
4 0
4 0
4 0
b	#36 bounds (on variables)
0 -1.e8 1.e8
0 -1.e8 1.e8
0 -1.e8 1.e8
0 -1.e8 1.e8
0 -1.e8 1.e8
0 -1.e8 1.e8
0 -1.e8 1.e8
0 -1.e8 1.e8
0 -1.e8 1.e8
0 -1.e8 1.e8
0 -1.e8 1.e8
0 -1.e8 1.e8
0 -1.e8 1.e8
0 0.001 1.e8
0 -1.e8 1.e8
0 -1.e8 1.e8
0 -1.e8 1.e8
0 -1.e8 1.e8
0 -1.e8 1.e8
0 -1.e8 1.e8
0 -1.e8 1.e8
0 -1.e8 1.e8
0 -1.e8 1.e8
0 -1.e8 1.e8
0 -1.e8 1.e8
0 -1.e8 1.e8
0 -1.e8 1.e8
0 -1.e8 1.e8
0 -1.e8 1.e8
0 -1.e8 1.e8
0 -1.e8 1.e8
0 -1.e8 1.e8
0 -1.e8 1.e8
0 -1.e8 1.e8
0 -1.e8 1.e8
0 -1.e8 1.e8
k35	#intermediate Jacobian column lengths
2
4
6
8
10
12
14
16
18
20
40
50
60
80
81
82
83
84
85
86
87
88
89
90
91
92
93
94
95
96
97
98
99
100
110
J0 6
0 0
10 0
11 0
13 0
14 1
34 -1
J1 6
0 0
10 0
12 0
13 0
15 1
35 -1
J2 6
1 0
10 0
11 0
13 0
16 1
34 -1
J3 6
1 0
10 0
12 0
13 0
17 1
35 -1
J4 6
2 0
10 0
11 0
13 0
18 1
34 -1
J5 6
2 0
10 0
12 0
13 0
19 1
35 -1
J6 6
3 0
10 0
11 0
13 0
20 1
34 -1
J7 6
3 0
10 0
12 0
13 0
21 1
35 -1
J8 6
4 0
10 0
11 0
13 0
22 1
34 -1
J9 6
4 0
10 0
12 0
13 0
23 1
35 -1
J10 6
5 0
10 0
11 0
13 0
24 1
34 -1
J11 6
5 0
10 0
12 0
13 0
25 1
35 -1
J12 6
6 0
10 0
11 0
13 0
26 1
34 -1
J13 6
6 0
10 0
12 0
13 0
27 1
35 -1
J14 6
7 0
10 0
11 0
13 0
28 1
34 -1
J15 6
7 0
10 0
12 0
13 0
29 1
35 -1
J16 6
8 0
10 0
11 0
13 0
30 1
34 -1
J17 6
8 0
10 0
12 0
13 0
31 1
35 -1
J18 6
9 0
10 0
11 0
13 0
32 1
34 -1
J19 6
9 0
10 0
12 0
13 0
33 1
35 -1
G0 30
0 0
1 0
2 0
3 0
4 0
5 0
6 0
7 0
8 0
9 0
14 0
15 0
16 0
17 0
18 0
19 0
20 0
21 0
22 0
23 0
24 0
25 0
26 0
27 0
28 0
29 0
30 0
31 0
32 0
33 0
